CMD:
./solvers/bin/cadical --plain --no-reduce -t 1600 ./data/cnfs//arbitrated_top_n4_w64_d32_e0/arbitrated_top_n4_w64_d32_e0.49.cnf

c --- [ banner ] -------------------------------------------------------------
c 
c CaDiCaL SAT Solver
c Copyright (c) 2016-2024
c A. Biere, M. Fleury, N. Froleyks, K. Fazekas, F. Pollitt, T. Faller
c JKU Linz, University of Freiburg, TU Wien
c 
c Version 2.1.3 5296d3d2a9bf48c154ab2acb5e44625776d821bf
c g++ (Gentoo 12.3.1_p20230526 p2) 12.3.1 20230526 -Wall -Wextra -O3 -DNDEBUG
c Sat Aug 9 07:26:21 PDT 2025 Linux cedar2.int.cedar.computecanada.ca 5.14.0-362.24.2.el9_3.x86_64 x86_64
c 
c --- [ limit ] --------------------------------------------------------------
c 
c setting time limit to 1600 seconds real time (due to '-t 1600')
c 
c --- [ parsing input ] ------------------------------------------------------
c 
c reading DIMACS file from './data/cnfs//arbitrated_top_n4_w64_d32_e0/arbitrated_top_n4_w64_d32_e0.49.cnf'
c opening file to read './data/cnfs//arbitrated_top_n4_w64_d32_e0/arbitrated_top_n4_w64_d32_e0.49.cnf'
c found 'p cnf 2207515 6556551' header
c parsed 6556551 clauses in 1.05 seconds process time
c 
c --- [ options ] ------------------------------------------------------------
c 
c   --compact=false                (different from default 'true')
c   --decompose=false              (different from default 'true')
c   --deduplicate=false            (different from default 'true')
c   --elim=false                   (different from default 'true')
c   --probe=false                  (different from default 'true')
c   --reduce=false                 (different from default 'true')
c   --subsume=false                (different from default 'true')
c   --ternary=false                (different from default 'true')
c   --transred=false               (different from default 'true')
c   --vivify=false                 (different from default 'true')
c 
c --- [ solving ] ------------------------------------------------------------
c 
c time measured in process time since initialization
c 
c  seconds   reductions  redundant   irredundant
c          MB    restarts       trail        variables
c           level   conflicts       glue           remaining
c 
c *  1.05 856  0 0   0    0    0  0% 0 4833100 992818 45%
c l  1.11 869  0 0   0    0    0  0% 0 4833100 992818 45%
c 1  1.12 869  0 0   0    0    0  0% 0 4833100 992818 45%
c 
c --- [ result ] -------------------------------------------------------------
c 
s SATISFIABLE
v 1 2 3 4 5 6 7 8 9 10 11 12 13 14 15 16 17 18 19 20 21 22 23 24 25 26 27 28
v 29 30 31 32 33 34 35 36 37 38 39 40 41 42 43 44 45 46 47 48 49 50 51 52 53
v 54 55 56 57 58 59 60 61 62 63 64 65 66 67 68 69 70 71 72 73 74 75 76 77 78
v 79 80 81 82 83 84 85 86 87 88 89 90 91 92 93 94 95 96 97 98 99 100 101 102
v 103 104 105 106 107 108 109 110 111 112 113 114 115 116 117 118 119 120 121
v 122 123 124 125 126 127 128 129 130 131 132 133 134 135 136 137 138 139 140
v 141 142 143 144 145 146 147 148 149 150 151 152 153 154 155 156 157 158 159
v 160 161 162 163 164 165 166 167 168 169 170 171 172 173 174 175 176 177 178
v 179 180 181 182 183 184 185 186 187 188 189 190 191 192 193 194 195 196 197
v 198 199 200 201 202 203 204 205 206 207 208 209 210 211 212 213 214 215 216
v 217 218 219 220 221 222 223 224 225 226 227 228 229 230 231 232 233 234 235
v 236 237 238 239 240 241 242 243 244 245 246 247 248 249 250 251 252 253 254
v 255 256 257 258 259 260 261 262 263 264 265 266 267 268 269 270 271 272 273
v 274 275 276 277 278 279 280 281 282 283 284 285 286 287 288 289 290 291 292
v 293 294 295 296 297 298 299 300 301 302 303 304 305 306 307 308 309 310 311
v 312 313 314 315 316 317 318 319 320 321 322 323 324 325 326 327 328 329 330
v 331 332 333 334 335 336 337 338 339 340 341 342 343 344 345 346 347 348 349
v 350 351 352 353 354 355 356 357 358 359 360 361 362 363 364 365 366 367 368
v 369 370 371 372 373 374 375 376 377 378 379 380 381 382 383 384 385 386 387
v 388 389 390 391 392 393 394 395 396 397 398 399 400 401 402 403 404 405 406
v 407 408 409 410 411 412 413 414 415 416 417 418 419 420 421 422 423 424 425
v 426 427 428 429 430 431 432 433 434 435 436 437 438 439 440 441 442 443 444
v 445 446 447 448 449 450 451 452 453 454 455 456 457 458 459 460 461 462 463
v 464 465 466 467 468 469 470 471 472 473 474 475 476 477 478 479 480 481 482
v 483 484 485 486 487 488 489 490 491 492 493 494 495 496 497 498 499 500 501
v 502 503 504 505 506 507 508 509 510 511 512 513 514 515 516 517 518 519 520
v 521 522 523 524 525 526 527 528 529 530 531 532 533 534 535 536 537 538 539
v 540 541 542 543 544 545 546 547 548 549 550 551 552 553 554 555 556 557 558
v 559 560 561 562 563 564 565 566 567 568 569 570 571 572 573 574 575 576 577
v 578 579 580 581 582 583 584 585 586 587 588 589 590 591 592 593 594 595 596
v 597 598 599 600 601 602 603 604 605 606 607 608 609 610 611 612 613 614 615
v 616 617 618 619 620 621 622 623 624 625 626 627 628 629 630 631 632 633 634
v 635 636 637 638 639 640 641 642 643 644 645 646 647 648 649 650 651 652 653
v 654 655 656 657 658 659 660 661 662 663 664 665 666 667 668 669 670 671 672
v 673 674 675 676 677 678 679 680 681 682 683 684 685 686 687 688 689 690 691
v 692 693 694 695 696 697 698 699 700 701 702 703 704 705 706 707 708 709 710
v 711 712 713 714 715 716 717 718 719 720 721 722 723 724 725 726 727 728 729
v 730 731 732 733 734 735 736 737 738 739 740 741 742 743 744 745 746 747 748
v 749 750 751 752 753 754 755 756 757 758 759 760 761 762 763 764 765 766 767
v 768 769 770 771 772 773 774 775 776 777 778 779 780 781 782 783 784 785 786
v 787 788 789 790 791 792 793 794 795 796 797 798 799 800 801 802 803 804 805
v 806 807 808 809 810 811 812 813 814 815 816 817 818 819 820 821 822 823 824
v 825 826 827 828 829 830 831 832 833 834 835 836 837 838 839 840 841 842 843
v 844 845 846 847 848 849 850 851 852 853 854 855 856 857 858 859 860 861 862
v 863 864 865 866 867 868 869 870 871 872 873 874 875 876 877 878 879 880 881
v 882 883 884 885 886 887 888 889 890 891 892 893 894 895 896 897 898 899 900
v 901 902 903 904 905 906 907 908 909 910 911 912 913 914 915 916 917 918 919
... skipped 253216 lines ...
v -2207006 -2207007 -2207008 -2207009 -2207010 -2207011 -2207012 -2207013
v -2207014 -2207015 -2207016 -2207017 -2207018 -2207019 -2207020 -2207021
v -2207022 -2207023 -2207024 -2207025 -2207026 -2207027 -2207028 -2207029
v -2207030 -2207031 -2207032 -2207033 -2207034 -2207035 -2207036 -2207037
v -2207038 -2207039 -2207040 -2207041 -2207042 -2207043 -2207044 -2207045
v -2207046 -2207047 -2207048 -2207049 -2207050 -2207051 -2207052 -2207053
v -2207054 -2207055 -2207056 -2207057 -2207058 -2207059 -2207060 -2207061
v -2207062 -2207063 -2207064 -2207065 -2207066 -2207067 -2207068 -2207069
v -2207070 -2207071 -2207072 -2207073 -2207074 -2207075 -2207076 -2207077
v -2207078 -2207079 -2207080 -2207081 -2207082 -2207083 -2207084 -2207085
v -2207086 -2207087 -2207088 -2207089 -2207090 -2207091 -2207092 -2207093
v -2207094 -2207095 -2207096 -2207097 -2207098 -2207099 -2207100 -2207101
v -2207102 -2207103 -2207104 -2207105 -2207106 -2207107 -2207108 -2207109
v -2207110 -2207111 -2207112 -2207113 2207114 -2207115 2207116 -2207117
v -2207118 -2207119 -2207120 -2207121 -2207122 -2207123 -2207124 -2207125
v -2207126 -2207127 -2207128 -2207129 -2207130 -2207131 -2207132 -2207133
v -2207134 -2207135 -2207136 -2207137 -2207138 -2207139 -2207140 -2207141
v -2207142 -2207143 -2207144 -2207145 -2207146 -2207147 -2207148 -2207149
v -2207150 -2207151 -2207152 -2207153 -2207154 -2207155 -2207156 -2207157
v -2207158 -2207159 -2207160 -2207161 -2207162 -2207163 -2207164 -2207165
v -2207166 -2207167 -2207168 -2207169 -2207170 -2207171 -2207172 -2207173
v -2207174 -2207175 -2207176 -2207177 -2207178 -2207179 -2207180 -2207181
v -2207182 -2207183 -2207184 -2207185 -2207186 -2207187 -2207188 -2207189
v -2207190 -2207191 -2207192 -2207193 -2207194 -2207195 -2207196 -2207197
v -2207198 -2207199 -2207200 -2207201 -2207202 -2207203 -2207204 -2207205
v -2207206 -2207207 -2207208 -2207209 -2207210 -2207211 -2207212 -2207213
v -2207214 -2207215 -2207216 -2207217 -2207218 -2207219 -2207220 -2207221
v -2207222 -2207223 -2207224 -2207225 -2207226 -2207227 -2207228 -2207229
v -2207230 -2207231 -2207232 -2207233 -2207234 -2207235 -2207236 -2207237
v -2207238 -2207239 -2207240 -2207241 -2207242 -2207243 -2207244 -2207245
v 2207246 -2207247 2207248 -2207249 -2207250 -2207251 -2207252 -2207253
v -2207254 -2207255 -2207256 -2207257 -2207258 -2207259 -2207260 -2207261
v -2207262 -2207263 -2207264 -2207265 -2207266 -2207267 -2207268 -2207269
v -2207270 -2207271 -2207272 -2207273 -2207274 -2207275 -2207276 -2207277
v -2207278 -2207279 -2207280 -2207281 -2207282 -2207283 -2207284 -2207285
v -2207286 -2207287 -2207288 -2207289 -2207290 -2207291 -2207292 -2207293
v -2207294 -2207295 -2207296 -2207297 -2207298 -2207299 -2207300 -2207301
v -2207302 -2207303 -2207304 -2207305 -2207306 -2207307 -2207308 -2207309
v -2207310 -2207311 -2207312 -2207313 -2207314 -2207315 -2207316 -2207317
v -2207318 -2207319 -2207320 -2207321 -2207322 -2207323 -2207324 -2207325
v -2207326 -2207327 -2207328 -2207329 -2207330 -2207331 -2207332 -2207333
v -2207334 -2207335 -2207336 -2207337 -2207338 -2207339 -2207340 -2207341
v -2207342 -2207343 -2207344 -2207345 -2207346 -2207347 -2207348 -2207349
v -2207350 -2207351 -2207352 -2207353 -2207354 -2207355 -2207356 -2207357
v -2207358 -2207359 -2207360 -2207361 -2207362 -2207363 -2207364 -2207365
v -2207366 -2207367 -2207368 -2207369 -2207370 -2207371 -2207372 -2207373
v -2207374 -2207375 -2207376 -2207377 2207378 -2207379 2207380 -2207381
v -2207382 -2207383 -2207384 -2207385 -2207386 -2207387 -2207388 -2207389
v -2207390 -2207391 -2207392 -2207393 -2207394 -2207395 -2207396 -2207397
v -2207398 -2207399 -2207400 -2207401 -2207402 -2207403 -2207404 -2207405
v -2207406 -2207407 -2207408 -2207409 -2207410 -2207411 -2207412 -2207413
v -2207414 -2207415 -2207416 -2207417 -2207418 -2207419 -2207420 -2207421
v -2207422 -2207423 -2207424 -2207425 -2207426 -2207427 -2207428 -2207429
v -2207430 -2207431 -2207432 -2207433 -2207434 -2207435 -2207436 -2207437
v -2207438 -2207439 -2207440 -2207441 -2207442 -2207443 -2207444 -2207445
v -2207446 -2207447 -2207448 -2207449 -2207450 -2207451 -2207452 -2207453
v -2207454 -2207455 -2207456 -2207457 -2207458 -2207459 -2207460 -2207461
v -2207462 -2207463 -2207464 -2207465 -2207466 -2207467 -2207468 -2207469
v -2207470 -2207471 -2207472 -2207473 -2207474 -2207475 -2207476 -2207477
v -2207478 -2207479 -2207480 -2207481 -2207482 -2207483 -2207484 -2207485
v -2207486 -2207487 -2207488 -2207489 -2207490 -2207491 -2207492 -2207493
v -2207494 -2207495 -2207496 -2207497 -2207498 -2207499 -2207500 -2207501
v -2207502 -2207503 -2207504 -2207505 -2207506 -2207507 -2207508 -2207509
v 2207510 -2207511 2207512 -2207513 2207514 -2207515 0
c 
c --- [ run-time profiling ] -------------------------------------------------
c 
c process time taken by individual solving procedures
c (percentage relative to process time for solving)
c 
c         1.05 1541.71% parse
c         0.07   99.82% search
c         0.07   99.82% lucky
c         0.00    0.00% simplify
c   =================================
c         0.07    5.49% solve
c 
c last line shows process time for solving
c (percentage relative to total process time)
c 
c --- [ statistics ] ---------------------------------------------------------
c 
c fixed:                   1214444        55.01 %  of all variables
c lucky:                         1       100.00 %  of tried
c minimized:                     0         0.00 %  learned literals
c shrunken:                      0         0.00 %  learned literals
c minishrunken:                  0         0.00 %  learned literals
c propagations:            1214444        17.89 M  per second
c 
c seconds are measured in process time for solving
c 
c --- [ resources ] ----------------------------------------------------------
c 
c total process time since initialization:         1.24    seconds
c total real time since initialization:            1.27    seconds
c maximum resident set size of process:          868.07    MB
c 
c --- [ shutting down ] ------------------------------------------------------
c 
c exit 10
